415,213
453,332
558,237
709,415
668,432
681,496
789,619
602,909
417,770
540,600
613,539
681,496
1001,569
868,311
668,432
613,539
732,731
756,880
844,726
822,600
721,326
523,188
681,136
644,169
792,64
732,81
721,326
868,311
857,164
523,188
453,480
732,731
